 100 

  26  31  11  23   2  46  23  50  46  36  23  19   7  45  32  15  34   3  40  36  23  14  20  50  39  40  34  43  33  44  22  29  40  39  48  41  22  27  44  44  20  45  41  39  32   8  15  13   7  32  38  39  18  22  15   1  50  13   5   7  27  29  29   1  36   5  10   2  13  43  29  34  40  22  16  16   5  11  23  25  24   1   6   6   3  36  40  39   5  35  38  28   6  43  31  44  40  47   7  35

 914

  14  19  23  24  25   1  11   9   6  23   7  23  15  22   3   8  12   2   1  24  11  25   7  16  10   1   2  23  10  18  24  19  22  22  10   5   7  23  23  13  18  22  16  17  13   3   5  12   5  18   6  17  16   3   5  24  23  12  23  12  25  13   2   9  17   7  16  15   5   7  21   7  16  19  18  12  13   3   1  16  21  25  22   8  25  24  17   3   6   2  25  23   4   9  22  13  11  25   1   6

